<instance format="XCSP3" type="CSP">
  <variables>
    <var id="x0"> 0 13 </var>
    <var id="x1"> 11 16 </var>
    <var id="x2"> 4 15 16 </var>
    <var id="x3"> 4 11 13 15 16 </var>
    <var id="x4"> 0 4 15 </var>
    <var id="x5"> 0 2 4 7 11 15 </var>
    <var id="x6"> 2 11 16 </var>
    <var id="x7"> 2 11 13 15 16 </var>
    <var id="x8"> 1 11 16 17 </var>
    <var id="x9"> 1 15 16 </var>
    <var id="x10"> 1 7 11 13 15 16 </var>
    <var id="x11"> 7 11 13 15 </var>
    <var id="x12"> 7 13 15 16 </var>
    <var id="x13"> 0 1 7 13 17 </var>
    <var id="x14"> 0 1 11 16 17 </var>
    <var id="x15"> 0 7 11 15 </var>
    <var id="x16"> 8 14 17 </var>
    <var id="x17"> 9 13..15 </var>
    <var id="x18"> 8 9 12 </var>
    <var id="x19"> 8 13 15 </var>
    <var id="x20"> 14 17 </var>
    <var id="x21"> 8 14 15 </var>
    <var id="x22"> 9 13 15 17 </var>
    <var id="x23"> 0 1 9 13 </var>
    <var id="x24"> 1 3 11 16 </var>
    <var id="x25"> 3 4 13 16 </var>
    <var id="x26"> 4 9 11 13 16 </var>
    <var id="x27"> 4 11 13 </var>
    <var id="x28"> 0 1 9 13 </var>
    <var id="x29"> 0 1 11 16 </var>
    <var id="x30"> 1 11 16 </var>
    <var id="x31"> 1 9 14 17 </var>
    <var id="x32"> 12 17 </var>
    <var id="x33"> 1 7 14 </var>
    <var id="x34"> 1 2 9 12 </var>
    <var id="x35"> 7 9 14 </var>
    <var id="x36"> 2 6 7 14 </var>
    <var id="x37"> 1 7 9 12 14 17 </var>
    <var id="x38"> 1 2 14 17 </var>
    <var id="x39"> 9 11 14 </var>
    <var id="x40"> 11 12 17 </var>
    <var id="x41"> 2 8 11 </var>
    <var id="x42"> 1 14 17 </var>
    <var id="x43"> 8 9 14 </var>
    <var id="x44"> 1 9 12 14 17 </var>
    <var id="x45"> 1 2 11 12 14 17 </var>
    <var id="x46"> 2 8 11 14 </var>
    <var id="x47"> 1 14 </var>
    <var id="x48"> 6 9 14 </var>
    <var id="x49"> 10 17 </var>
    <var id="x50"> 1 6 14 17 </var>
    <var id="x51"> 1 9 14 17 </var>
    <var id="x52"> 1 2 14 17 </var>
    <var id="x53"> 1 2 8 14 </var>
    <var id="x54"> 1 2 9 17 </var>
    <var id="x55"> 4 13..16 </var>
    <var id="x56"> 1 3 4 </var>
    <var id="x57"> 3 15..17 </var>
    <var id="x58"> 13..16 </var>
    <var id="x59"> 3 13 14 </var>
    <var id="x60"> 1 14 16 17 </var>
    <var id="x61"> 1 3 14 16 17 </var>
    <var id="x62"> 4 14 15 </var>
    <var id="x63"> 1 8 17 </var>
    <var id="x64"> 1 3 8 11 17 </var>
    <var id="x65"> 1 4 8 </var>
    <var id="x66"> 3 11 17 </var>
    <var id="x67"> 3 7 8 </var>
    <var id="x68"> 1 3 11 17 </var>
    <var id="x69"> 1 8 11 </var>
    <var id="x70"> 1 9 14 </var>
    <var id="x71"> 1 4 9 10 14..16 </var>
    <var id="x72"> 1 4 14..16 </var>
    <var id="x73"> 10 12 15 16 </var>
    <var id="x74"> 9 14..16 </var>
    <var id="x75"> 14 </var>
    <var id="x76"> 1 9 12 14 </var>
    <var id="x77"> 1 12 14 16 </var>
    <var id="x78"> 8 11 14 16 </var>
    <var id="x79"> 13 16 </var>
    <var id="x80"> 7 11 13..16 </var>
    <var id="x81"> 8 11 </var>
    <var id="x82"> 7 8 11 13 15 </var>
    <var id="x83"> 0 11 14 16 </var>
    <var id="x84"> 0 7 8 11 14 15 </var>
    <var id="x85"> 11 13 15 16 </var>
    <var id="x86"> 2 4 11 </var>
    <var id="x87"> 0 4 14 17 </var>
    <var id="x88"> 5 13 14 </var>
    <var id="x89"> 0 2 13 14 </var>
    <var id="x90"> 0 2 11 14 17 </var>
    <var id="x91"> 0 2 4 11 14 </var>
    <var id="x92"> 2 5 11 14 </var>
    <var id="x93"> 2 11 13 17 </var>
    <var id="x94"> 0 17 </var>
    <var id="x95"> 3 12 16 17 </var>
    <var id="x96"> 11 15 16 </var>
    <var id="x97"> 2 3 11 12 </var>
    <var id="x98"> 3 11 12 15..17 </var>
    <var id="x99"> 0 2 3 </var>
    <var id="x100"> 0 2 11 15 </var>
    <var id="x101"> 2 11 12 16 </var>
    <var id="x102"> 0 1 5 8 14 </var>
    <var id="x103"> 5 </var>
    <var id="x104"> 1 8 14 15 </var>
    <var id="x105"> 0 1 14 15 </var>
    <var id="x106"> 0 7 8 14 </var>
    <var id="x107"> 0 1 7 14 </var>
    <var id="x108"> 0 1 11 14 </var>
    <var id="x109"> 0 1 11 14 </var>
    <var id="x110"> 5 8 14 </var>
    <var id="x111"> 3 8 14 16 </var>
    <var id="x112"> 4 8 14 16 </var>
    <var id="x113"> 2 4 8 </var>
    <var id="x114"> 4 14 </var>
    <var id="x115"> 2 3 14 16 </var>
    <var id="x116"> 2 16 </var>
    <var id="x117"> 1 6 14 16 </var>
    <var id="x118"> 12 13 16 </var>
    <var id="x119"> 1 9 10 14 16 </var>
    <var id="x120"> 6 9 13 14 16 </var>
    <var id="x121"> 10 13 </var>
    <var id="x122"> 9 13 14 16 </var>
    <var as="x77" id="x123"/>
    <var id="x124"> 1 9 13 16 </var>
    <var id="x125"> 4 13 16 </var>
    <var id="x126"> 1 4 11 13 14 16 </var>
    <var id="x127"> 4 6 11 13 14 16 </var>
    <var id="x128"> 1 4 8 11 </var>
    <var id="x129"> 11 16 </var>
    <var id="x130"> 1 4 6 14 </var>
    <var id="x131"> 6 8 13 14 </var>
    <var id="x132"> 1 8 11 14 16 </var>
    <var id="x133"> 8 14..16 </var>
    <var id="x134"> 11 14..16 </var>
    <var id="x135"> 2 3 8 11 </var>
    <var id="x136"> 2 8 11 15 </var>
    <var id="x137"> 5 8 14..16 </var>
    <var id="x138"> 14 </var>
    <var id="x139"> 2 5 8 11 14 16 </var>
    <var id="x140"> 2 11 15 16 </var>
  </variables>
  <constraints>
    <group>
      <allDifferent> %... </allDifferent>
      <args> x0 x1 x2 x3 x4 x5 x6 x7 </args>
      <args> x8 x9 x10 x11 x12 x13 x14 x15 </args>
      <args> x16 x17 x18 x19 x20 x21 x22 </args>
      <args> x23 x24 x25 x26 x27 x28 x29 x30 </args>
      <args> x31 x32 x33 x34 x35 x36 x37 x38 </args>
      <args> x39 x40 x41 x42 x43 x44 x45 x46 </args>
      <args> x47 x48 x49 x50 x51 x52 x53 x54 </args>
      <args> x55 x56 x57 x58 x59 x60 x61 x62 </args>
      <args> x63 x64 x65 x66 x67 x68 x69 </args>
      <args> x70 x71 x72 x73 x74 x75 x76 x77 </args>
      <args> x78 x79 x80 x81 x82 x83 x84 x85 </args>
      <args> x86 x87 x88 x89 x90 x91 x92 x93 </args>
      <args> x94 x95 x96 x97 x98 x99 x100 x101 </args>
      <args> x102 x103 x104 x105 x106 x107 x108 x109 </args>
      <args> x110 x111 x112 x113 x114 x115 x116 </args>
      <args> x117 x118 x119 x120 x121 x122 x123 x124 </args>
      <args> x125 x126 x127 x128 x129 x130 x131 x132 </args>
      <args> x133 x134 x135 x136 x137 x138 x139 x140 </args>
      <args> x0 x23 x31 x63 x70 x94 x102 x110 </args>
      <args> x1 x8 x16 x24 x64 x78 x111 x117 </args>
      <args> x25 x32 x79 x95 x103 x118 x125 </args>
      <args> x2 x9 x65 x71 x104 x112 x119 x133 </args>
      <args> x10 x33 x47 x72 x80 x96 x126 x134 </args>
      <args> x3 x17 x26 x39 x48 x55 x120 x127 </args>
      <args> x18 x34 x56 x81 x86 x97 x128 x135 </args>
      <args> x40 x49 x57 x66 x73 x98 x129 </args>
      <args> x11 x19 x27 x41 x82 x113 x121 x136 </args>
      <args> x4 x42 x50 x87 x105 x114 x130 </args>
      <args> x12 x35 x43 x58 x74 x88 x122 x137 </args>
      <args> x36 x59 x67 x75 x89 x99 x106 x131 </args>
      <args> x13 x28 x37 x44 x51 x76 x107 x138 </args>
      <args> x29 x45 x52 x60 x77 x83 x108 x123 </args>
      <args> x14 x20 x38 x61 x68 x90 x109 x115 </args>
      <args> x5 x15 x21 x46 x62 x84 x91 x100 </args>
      <args> x6 x30 x53 x69 x92 x101 x132 x139 </args>
      <args> x7 x22 x54 x85 x93 x116 x124 x140 </args>
    </group>
  </constraints>
</instance>

